; benchmark generated from python API
(set-info :status unknown)
(declare-fun S_2 () Real)
(declare-fun S_3 () Real)
(declare-fun C () Real)
(declare-fun S_4 () Real)
(declare-fun S_1 () Real)
(declare-fun S_0 () Real)
(declare-fun A_0 () Real)
(declare-fun L_0 () Real)
(declare-fun B () Real)
(declare-fun A_3 () Real)
(declare-fun A_4 () Real)
(declare-fun A_1 () Real)
(declare-fun L_1 () Real)
(declare-fun A_2 () Real)
(declare-fun L_2 () Real)
(assert
 (let (($x34 (>= L_0 0.0)))
 (let (($x1854 (>= C 5.0)))
 (let (($x643 (>= B 5.0)))
 (let ((?x1209 (* (- 1.0) A_4)))
 (let ((?x2356 (* (- 3.0) C)))
 (let ((?x1753 (* (- 1.0) A_0)))
 (let ((?x424 (* (- 1.0) B)))
 (let (($x10189 (<= (+ ?x424 (* (- 4.0) C) ?x1209 A_3 S_4 (* (- 1.0) S_0)) 0.0)))
 (let (($x10174 (<= (+ ?x424 (* (- 2.0) C) ?x1209 A_3 S_4 (* (- 1.0) S_2)) 0.0)))
 (let (($x10184 (<= (+ ?x424 (* (- 1.0) C) ?x1209 A_3 S_4 (* (- 1.0) S_3)) 0.0)))
 (let (($x10265 (<= (+ ?x424 (* (- 1.0) A_1) L_0 ?x1209 (* (- 2.0) C) A_3 S_4) 0.0)))
 (let (($x9696 (<= (+ A_1 (* (- 1.0) L_0) (* 2.0 C) (* (- 1.0) S_4)) 0.0)))
 (let ((?x960 (* (- 1.0) L_1)))
 (let ((?x9407 (+ A_2 ?x960 C)))
 (let (($x9345 (>= S_4 ?x9407)))
 (let (($x2705 (>= S_4 (+ A_3 ?x960))))
 (let (($x931 (not (= L_1 L_2))))
 (let (($x14771 (or $x931 $x2705 $x9345 $x9696 (<= (+ (* 3.0 C) (* (- 1.0) S_4) S_0) 0.0))))
 (let ((?x1192 (+ A_2 ?x960)))
 (let (($x1309 (>= S_3 ?x1192)))
 (let (($x10418 (or $x1309 (<= (+ A_1 (* (- 1.0) L_0) C (* (- 1.0) S_3)) 0.0) (<= (+ (* 2.0 C) (* (- 1.0) S_3) S_0) 0.0))))
 (let ((?x943 (* (- 1.0) L_2)))
 (let ((?x1556 (+ A_3 ?x943)))
 (let (($x1667 (>= S_4 ?x1556)))
 (let (($x9864 (or $x931 $x2705 $x9345 (<= (+ (* 2.0 C) (* (- 1.0) S_4) S_1) 0.0))))
 (let (($x61 (= L_2 L_1)))
 (let (($x9632 (or $x61 (<= (+ (* (- 2.0) C) (* (- 1.0) A_2) L_2 B S_4) 0.0))))
 (let (($x14824 (or (<= (+ A_1 (* (- 1.0) L_0) (* (- 1.0) S_2)) 0.0) (<= (+ C (* (- 1.0) S_2) S_0) 0.0))))
 (let (($x51 (= L_1 L_0)))
 (let (($x10297 (or $x51 (<= S_4 (+ A_4 (* (- 1.0) A_3) A_1 ?x960 (* 2.0 C))))))
 (let (($x9532 (<= A_2 (+ A_1 ?x424 C))))
 (let ((?x1369 (* 2.0 C)))
 (let ((?x9349 (+ A_1 ?x960 ?x424 ?x1369)))
 (let (($x8436 (>= S_4 ?x9349)))
 (let (($x15168 (or (<= (+ A_2 ?x943) (+ A_1 ?x960 ?x424 C)) $x8436 (<= ?x1556 ?x9349))))
 (let (($x1502 (not (<= L_1 L_0))))
 (let (($x9503 (or $x61 $x1502 (<= (+ A_1 (* (- 1.0) L_0) L_2 (* (- 1.0) A_2) C) 0.0))))
 (let ((?x2116 (* (- 1.0) C)))
 (let ((?x9423 (+ ?x424 ?x943 A_2 ?x2116)))
 (let (($x9424 (<= (+ A_1 (* (- 1.0) L_0)) ?x9423)))
 (let (($x9432 (<= (+ C A_2 ?x943 ?x424 (* (- 1.0) S_4)) 0.0)))
 (let (($x14997 (or (= (+ ?x2116 A_2 ?x943 ?x424 (* (- 1.0) A_1) L_0) 0.0) (not $x9424))))
 (let (($x14891 (or $x1667 $x8436 (not (= L_2 (+ A_2 (* (- 1.0) A_1) L_1 ?x2116))))))
 (let (($x132 (>= S_1 S_0)))
 (let (($x10 (>= S_2 S_1)))
 (let (($x13 (>= S_3 S_2)))
 (let (($x24 (>= S_4 S_3)))
 (let (($x119 (>= A_1 A_0)))
 (let (($x120 (>= A_2 A_1)))
 (let (($x121 (>= A_3 A_2)))
 (let (($x122 (>= A_4 A_3)))
 (and $x122 $x121 $x120 $x119 $x24 $x13 $x10 $x132 (>= S_2 (+ A_1 ?x960 ?x424)) (or (not (= L_0 L_1)) (<= (+ ?x424 A_1 ?x2116) A_0)) (<= S_4 (+ A_4 ?x943)) (>= S_0 (+ ?x424 ?x960 A_1 (* (- 2.0) C))) (>= S_1 (+ ?x424 ?x960 A_1 ?x2116)) (or $x51 $x1502) (or $x51 (<= S_1 (+ A_1 ?x960 ?x424))) (or $x61 (not (<= (+ A_2 (* (- 1.0) A_1) ?x2116) 0.0))) (or $x51 (<= S_0 (+ ?x424 ?x960 A_1 ?x2116))) (or $x51 $x61 (= L_2 (+ A_2 (* (- 1.0) A_1) L_1 ?x2116))) (or $x51 (<= (+ A_2 (* (- 1.0) A_1) ?x2116) 0.0) $x931) (<= S_3 ?x1556) (or (= L_2 L_0) (not (<= 0.0 (+ ?x943 L_0)))) (or $x61 (<= (+ (* (- 1.0) A_2) L_2 B S_2) 0.0)) (<= (+ ?x424 ?x960 A_1 ?x2116) (+ A_0 (* (- 1.0) L_0))) (or $x61 (<= (+ ?x2116 (* (- 1.0) A_2) L_2 B S_3) 0.0)) (<= (+ A_2 ?x943 ?x424 (* (- 1.0) S_3)) 0.0) $x14891 (<= S_4 (+ A_3 ?x943 C)) (<= (+ (* (- 1.0) A_1) L_0 S_1) 0.0) (<= (+ ?x424 ?x943 A_2 (* (- 2.0) C)) (+ A_0 (* (- 1.0) L_0))) (>= S_2 ?x9423) (>= S_1 (+ ?x424 ?x943 A_2 (* (- 2.0) C))) (>= S_0 (+ ?x424 ?x943 A_2 ?x2356)) (or $x61 (<= S_1 ?x9423)) $x14997 (or (<= A_3 (+ A_2 C)) $x9432) (or $x61 $x9424 (<= S_0 (+ ?x424 ?x943 A_2 (* (- 2.0) C)))) $x9503 (or $x51 (<= S_2 (+ A_1 ?x960 ?x424 C))) (or (>= S_3 (+ A_1 ?x960 ?x424 C)) $x1309) (or $x931 $x2705 (<= (+ C A_2 ?x960 ?x424 (* (- 1.0) S_4)) 0.0)) $x15168 (or $x2705 $x9345 (not $x9532)) (<= S_4 (+ A_2 ?x960 ?x1369)) (or $x51 (<= S_3 ?x9349)) (or $x51 (<= S_4 (+ A_1 ?x960 ?x424 (* 3.0 C)))) (<= S_3 ?x9407) (or $x931 $x2705 $x9532 (not (<= A_3 (+ A_1 ?x424 ?x1369)))) (<= S_4 (+ A_4 (* (- 1.0) A_3) A_2 ?x960 C B)) $x10297 (or $x1667 $x9432) (<= (+ ?x1753 L_0 ?x2116 S_1) 0.0) $x14824 (<= (+ (* (- 2.0) C) S_1 (* (- 1.0) S_0)) 0.0) $x9632 (or $x61 (<= S_4 (+ A_4 (* (- 1.0) A_3) A_2 ?x943 C))) (<= S_2 ?x1192) (or $x1309 (<= (+ C (* (- 1.0) S_3) S_1) 0.0)) $x9864 (or $x1667 (<= (+ C (* (- 1.0) S_4) S_2) 0.0)) (<= (+ ?x1753 (* (- 2.0) C) S_2 L_0) 0.0) (<= (+ (* (- 1.0) A_1) L_0 ?x2356 S_4) 0.0) (<= (+ (* (- 1.0) A_1) L_0 ?x2116 S_2) 0.0) (<= (+ (* (- 1.0) A_1) L_0 (* (- 2.0) C) S_3) 0.0) $x10418 (<= (+ ?x1753 (* (- 4.0) C) S_4 L_0) 0.0) (<= (+ ?x2356 S_2 (* (- 1.0) S_0)) 0.0) $x14771 (<= (+ ?x1753 ?x2356 S_3 L_0) 0.0) (<= (+ (* (- 2.0) C) S_2 (* (- 1.0) S_1)) 0.0) (<= (+ (* (- 5.0) C) S_4 (* (- 1.0) S_0)) 0.0) (<= (+ (* (- 4.0) C) S_4 (* (- 1.0) S_1)) 0.0) (<= (+ (* (- 4.0) C) S_3 (* (- 1.0) S_0)) 0.0) $x10265 $x10184 (<= (+ ?x424 ?x2356 ?x1209 A_3 S_4 (* (- 1.0) S_1)) 0.0) $x10174 $x10189 (<= (+ ?x424 ?x1753 ?x2356 ?x1209 A_3 S_4 L_0) 0.0) $x643 $x1854 $x34 (<= (+ L_0 ?x1753 S_0) 0.0) (<= (+ ?x2356 S_3 (* (- 1.0) S_1)) 0.0) (<= (+ ?x2356 S_4 (* (- 1.0) S_2)) 0.0) (<= (+ (* (- 2.0) C) S_4 (* (- 1.0) S_3)) 0.0) (<= (+ (* (- 2.0) C) S_3 (* (- 1.0) S_2)) 0.0))))))))))))))))))))))))))))))))))))))))))))))))))))))
(check-sat)
